/* Objective function */
min: - 0.0054fpdi - 0.0054fpdo + 0.05apdi + 0.05apdo + 0.0002pi + 0.0002po - 0.5fsi - 0.5fso;

apdi = 0.0 hi + 0.0 li + 12.45847 ri + -0.00317 ci + -1.87955 si + 0.0 ti + 0.12481 fTempIi + 0.00473 ami + -153.75307;
asi = 0.0 hi + 0.0 li + 0.0 ri + -0.0 ci + -0.0 si + -0.0 ti + 0.0 fTempIi + 5e-05 ami + 0.00946;
aTempOi = 0.0 hi + 0.0 li + 0.30196 ri + -0.03317 ci + -0.05323 si + -0.0 ti + 0.77179 fTempIi + -0.00014 ami + 7.04113;
fpdi = 0.0 hi + 0.0 li + 8.94688 ri + -7.05179 ci + -0.02023 si + -0.0 ti + -0.49166 fTempIi + 5e-05 ami + 253.69452;
fsi = 0.0 hi + 0.0 li + -0.00012 ri + -0.03 ci + 2e-05 si + -0.0 ti + 0.00066 fTempIi + -0.0 ami + 2.03833;
fTempOi = 0.0 hi + -0.0 li + -0.29898 ri + 0.03254 ci + 0.05262 si + -0.0 ti + 0.24473 fTempIi + -0.00012 ami + 9.43302;
pi = 0.0 hi + 0.0 li + 469.85 ri + 3.13333 ci + -40.1981 si + 0.0 ti + -0.0 fTempIi + 0.0 ami + 1576.0619;

apdo = 0.0 ho + 0.0 lo + 12.59444 ro + -0.00476 co + -1.89537 so + 0.0 to + 0.12109 fTempIo + 0.00485 amo + -156.29925;
aso = 0.0 ho + -0.0 lo + -7e-05 ro + -0.00014 co + -2e-05 so + -0.0 to + -0.00012 fTempIo + 5e-05 amo + 0.01703;
aTempOo = 0.0 ho + -0.0 lo + -0.30625 ro + 0.03028 co + 0.0606 so + 0.0 to + 0.76396 fTempIo + 0.00015 amo + -0.55128;
fpdo = 0.0 ho + -0.0 lo + 25.26506 ro + -30.15056 co + 0.06425 so + -0.0 to + -1.35612 fTempIo + -0.00015 amo + 718.69051;
fso = 0.0 ho + -0.0 lo + 0.00018 ro + -0.06644 co + -4e-05 so + -0.0 to + 0.00095 fTempIo + 0.0 amo + 3.0319;
fTempOo = 0.0 ho + 0.0 lo + 0.30306 ro + -0.03698 co + -0.06068 so + -0.0 to + 0.24571 fTempIo + 0.00013 amo + 12.73801;
po = 0.0 ho + 0.0 lo + 469.84167 ro + 3.13333 co + -40.19429 so + 0.0 to + 0.0 fTempIo + -0.0 amo + 1576.00238;

/* Variable bounds */
aTempOi > 18.6;
1 =r6i + r8i + r10i + r12i + r14i;
ri =6r6i + 8r8i + 10r10i + 12r12i + 14r14i;
1 =s25i + s30i + s40i;
si =25s25i + 30s30i + 40s40i;
ti = 2;
apdi > 100;
apdi < 300;
asi > 0;
asi < 3;
aTempOi > 5;
aTempOi < 25;
fpdi > 100;
fpdi < 300;
fsi > 0;
fsi < 1.25;
fTempOi > 5;
fTempOi < 25;
pi > 0;
ri > 6;
ri < 14;
ci > 32;
ci < 60;
si > 25;
si < 60;
ti > 1;
ti < 3;
fTempIi > 5;
fTempIi < 25;

/* aTempOo < 11.4; */
1 =r6o + r8o + r10o + r12o + r14o;
ro =6r6o + 8r8o + 10r10o + 12r12o + 14r14o;
1 =s25o + s30o + s40o;
so =25s25o + 30s30o + 40s40o;
to = 2;
apdo > 100;
apdo < 300;
aso > 0;
aso < 3;
aTempOo > 5;
aTempOo < 25;
fpdo > 100;
fpdo < 300;
fso > 0;
fso < 1.25;
fTempOo > 5;
fTempOo < 25;
po > 0;
ro > 6;
ro < 14;
co > 1;
co < 26;
so > 25;
so < 60;
to > 1;
to < 3;
fTempIo > 5;
fTempIo < 25;
int hi,li,si,ti,ci,ri,ami;
int ho,lo,so,to,co,ro,amo;
bin s25i,s30i,s40i,s50i,s60i,r6i,r8i,r10i,r12i,r14i;
bin s25o,s30o,s40o,s50o,s60o,r6o,r8o,r10o,r12o,r14o;
